33D32945 STP File, STP Format Version 1.0

SECTION Comment
Name "i640-033-PCST"
Creator "Indaco Biazzo" 
Remark "derived from Incidence graph by Cees Duin"
END

SECTION Graph
Nodes 640
Edges 1280
E 1 28 197.000000
E 1 29 201.000000
E 1 59 203.000000
E 1 263 195.000000
E 1 326 196.000000
E 1 374 199.000000
E 1 468 193.000000
E 1 523 197.000000
E 2 29 202.000000
E 2 71 202.000000
E 2 131 203.000000
E 2 429 197.000000
E 2 458 199.000000
E 2 598 194.000000
E 2 606 195.000000
E 3 337 200.000000
E 3 360 200.000000
E 3 465 201.000000
E 4 372 212.000000
E 4 419 189.000000
E 5 434 190.000000
E 6 224 195.000000
E 6 418 210.000000
E 6 535 206.000000
E 6 543 201.000000
E 7 190 208.000000
E 7 207 196.000000
E 7 209 199.000000
E 7 479 199.000000
E 7 571 202.000000
E 7 584 205.000000
E 7 608 193.000000
E 8 133 209.000000
E 8 213 208.000000
E 8 309 195.000000
E 8 486 198.000000
E 9 61 205.000000
E 9 435 188.000000
E 9 483 203.000000
E 9 488 210.000000
E 10 321 105.000000
E 10 338 101.000000
E 10 561 100.000000
E 11 75 102.000000
E 11 402 104.000000
E 11 580 98.000000
E 12 18 96.000000
E 12 88 92.000000
E 12 427 102.000000
E 12 596 109.000000
E 13 179 101.000000
E 13 240 96.000000
E 13 462 103.000000
E 13 529 106.000000
E 14 63 98.000000
E 14 304 97.000000
E 14 519 96.000000
E 14 579 101.000000
E 15 152 101.000000
E 15 218 100.000000
E 15 368 100.000000
E 16 272 96.000000
E 16 297 102.000000
E 16 342 99.000000
E 16 514 101.000000
E 16 521 98.000000
E 16 577 94.000000
E 16 585 101.000000
E 17 166 102.000000
E 17 248 103.000000
E 17 261 104.000000
E 17 266 100.000000
E 17 529 98.000000
E 18 215 91.000000
E 18 515 104.000000
E 19 64 94.000000
E 19 101 99.000000
E 19 273 97.000000
E 20 211 96.000000
E 20 337 95.000000
E 20 436 105.000000
E 20 478 100.000000
E 21 57 91.000000
E 21 61 89.000000
E 21 189 91.000000
E 21 217 105.000000
E 21 257 104.000000
E 21 524 109.000000
E 21 553 98.000000
E 22 137 108.000000
E 22 220 98.000000
E 22 505 94.000000
E 22 625 101.000000
E 23 51 106.000000
E 23 113 93.000000
E 23 415 99.000000
E 24 122 110.000000
E 24 141 103.000000
E 24 462 100.000000
E 24 464 98.000000
E 24 473 98.000000
E 25 177 97.000000
E 25 515 102.000000
E 26 96 104.000000
E 26 101 97.000000
E 26 245 105.000000
E 26 332 104.000000
E 26 339 107.000000
E 26 340 103.000000
E 26 539 101.000000
E 27 94 97.000000
E 27 309 106.000000
E 28 233 93.000000
E 28 259 94.000000
E 28 373 105.000000
E 29 305 96.000000
E 29 317 95.000000
E 29 572 88.000000
E 30 108 95.000000
E 30 398 99.000000
E 30 471 104.000000
E 30 472 94.000000
E 30 578 108.000000
E 30 593 97.000000
E 31 182 100.000000
E 31 601 96.000000
E 32 247 98.000000
E 32 257 100.000000
E 32 450 93.000000
E 33 167 101.000000
E 33 427 107.000000
E 33 517 102.000000
E 34 132 101.000000
E 34 178 100.000000
E 34 472 91.000000
E 34 540 103.000000
E 34 626 90.000000
E 35 54 89.000000
E 35 76 100.000000
E 35 428 99.000000
E 35 498 101.000000
E 36 551 100.000000
E 37 102 103.000000
E 37 117 100.000000
E 37 159 99.000000
E 37 358 93.000000
E 38 220 98.000000
E 38 261 102.000000
E 38 336 105.000000
E 38 530 100.000000
E 39 96 98.000000
E 39 384 101.000000
E 39 441 92.000000
E 40 80 100.000000
E 40 91 97.000000
E 40 119 99.000000
E 40 179 93.000000
E 40 490 91.000000
E 40 603 101.000000
E 41 131 86.000000
E 41 298 93.000000
E 41 329 97.000000
E 41 366 92.000000
E 42 55 99.000000
E 42 113 99.000000
E 42 461 98.000000
E 42 585 98.000000
E 42 612 107.000000
E 43 595 106.000000
E 44 79 107.000000
E 44 117 107.000000
E 44 373 97.000000
E 44 476 102.000000
E 44 619 98.000000
E 45 52 93.000000
E 45 609 99.000000
E 46 57 95.000000
E 46 182 96.000000
E 46 322 111.000000
E 46 356 99.000000
E 46 563 103.000000
E 47 275 108.000000
E 47 340 93.000000
E 47 360 96.000000
E 47 591 96.000000
E 48 77 103.000000
E 48 248 105.000000
E 48 270 102.000000
E 48 293 100.000000
E 49 253 94.000000
E 49 411 95.000000
E 49 457 96.000000
E 49 631 98.000000
E 50 79 96.000000
E 50 82 108.000000
E 50 471 93.000000
E 50 504 102.000000
E 51 161 101.000000
E 51 230 104.000000
E 51 319 105.000000
E 51 439 100.000000
E 51 573 99.000000
E 51 581 100.000000
E 52 236 109.000000
E 52 508 99.000000
E 52 551 100.000000
E 52 634 94.000000
E 53 61 99.000000
E 53 465 91.000000
E 54 93 107.000000
E 54 165 101.000000
E 54 264 103.000000
E 54 483 102.000000
E 54 520 97.000000
E 54 536 92.000000
E 55 523 107.000000
E 56 170 100.000000
E 56 332 96.000000
E 56 362 90.000000
E 56 459 90.000000
E 57 354 102.000000
E 57 472 104.000000
E 58 227 103.000000
E 58 336 87.000000
E 59 357 101.000000
E 59 448 101.000000
E 60 255 93.000000
E 61 67 104.000000
E 61 179 98.000000
E 61 202 102.000000
E 61 208 104.000000
E 61 217 104.000000
E 61 473 99.000000
E 61 599 95.000000
E 61 616 92.000000
E 62 291 91.000000
E 62 305 102.000000
E 62 331 101.000000
E 62 461 98.000000
E 62 576 98.000000
E 62 588 99.000000
E 63 119 99.000000
E 63 140 101.000000
E 63 299 96.000000
E 63 338 105.000000
E 63 491 102.000000
E 63 550 105.000000
E 63 637 94.000000
E 64 153 101.000000
E 64 164 98.000000
E 64 348 97.000000
E 65 162 99.000000
E 65 235 109.000000
E 65 281 106.000000
E 65 384 100.000000
E 65 451 101.000000
E 65 484 99.000000
E 66 332 102.000000
E 66 616 107.000000
E 67 121 90.000000
E 67 327 105.000000
E 68 106 109.000000
E 68 236 101.000000
E 68 237 107.000000
E 68 250 100.000000
E 68 346 95.000000
E 68 530 101.000000
E 69 117 99.000000
E 69 398 96.000000
E 69 624 101.000000
E 70 137 102.000000
E 70 269 98.000000
E 70 598 98.000000
E 71 319 100.000000
E 71 433 99.000000
E 72 81 97.000000
E 72 124 97.000000
E 72 223 98.000000
E 72 496 105.000000
E 72 573 99.000000
E 73 208 97.000000
E 73 256 100.000000
E 73 636 98.000000
E 74 142 91.000000
E 75 476 104.000000
E 76 311 98.000000
E 76 430 101.000000
E 76 432 109.000000
E 76 447 104.000000
E 77 101 100.000000
E 77 166 98.000000
E 77 259 95.000000
E 77 402 95.000000
E 77 438 93.000000
E 77 518 97.000000
E 77 538 104.000000
E 77 564 88.000000
E 78 463 93.000000
E 79 181 98.000000
E 80 214 102.000000
E 80 429 106.000000
E 81 281 101.000000
E 82 99 88.000000
E 82 112 99.000000
E 82 301 104.000000
E 83 233 98.000000
E 83 259 96.000000
E 83 272 97.000000
E 83 386 98.000000
E 83 608 97.000000
E 84 452 96.000000
E 84 476 94.000000
E 84 601 98.000000
E 85 308 102.000000
E 85 477 100.000000
E 85 484 97.000000
E 86 129 103.000000
E 86 150 94.000000
E 86 155 98.000000
E 87 123 98.000000
E 87 241 106.000000
E 87 438 104.000000
E 87 538 97.000000
E 87 595 88.000000
E 88 124 95.000000
E 88 635 87.000000
E 88 638 98.000000
E 89 219 94.000000
E 89 234 100.000000
E 89 420 100.000000
E 89 462 100.000000
E 89 629 107.000000
E 90 139 97.000000
E 90 424 101.000000
E 91 224 97.000000
E 91 233 99.000000
E 91 252 100.000000
E 91 546 93.000000
E 92 196 93.000000
E 92 456 99.000000
E 92 533 102.000000
E 92 554 107.000000
E 92 573 98.000000
E 92 574 95.000000
E 93 120 107.000000
E 93 360 101.000000
E 93 378 102.000000
E 93 384 96.000000
E 93 399 109.000000
E 93 405 99.000000
E 94 492 104.000000
E 95 121 102.000000
E 95 188 104.000000
E 95 501 102.000000
E 95 506 101.000000
E 96 101 91.000000
E 96 404 85.000000
E 96 412 97.000000
E 96 512 93.000000
E 97 150 96.000000
E 97 185 113.000000
E 97 194 93.000000
E 97 255 100.000000
E 97 366 98.000000
E 98 140 102.000000
E 98 289 103.000000
E 98 309 98.000000
E 98 386 99.000000
E 98 424 98.000000
E 98 540 105.000000
E 99 118 97.000000
E 99 225 106.000000
E 99 494 94.000000
E 99 518 96.000000
E 99 544 96.000000
E 100 139 103.000000
E 100 239 104.000000
E 100 549 91.000000
E 101 240 99.000000
E 101 267 105.000000
E 101 413 91.000000
E 101 453 103.000000
E 101 585 98.000000
E 102 315 104.000000
E 103 188 106.000000
E 103 240 90.000000
E 103 307 95.000000
E 103 379 107.000000
E 103 579 100.000000
E 104 163 100.000000
E 104 269 93.000000
E 104 272 99.000000
E 104 276 102.000000
E 104 632 95.000000
E 105 145 100.000000
E 105 226 100.000000
E 105 270 100.000000
E 105 557 92.000000
E 106 154 103.000000
E 106 580 97.000000
E 107 163 95.000000
E 107 463 103.000000
E 108 118 102.000000
E 108 139 116.000000
E 108 321 102.000000
E 109 461 93.000000
E 109 468 98.000000
E 109 553 96.000000
E 109 571 97.000000
E 109 614 97.000000
E 110 145 97.000000
E 111 429 101.000000
E 111 501 96.000000
E 111 554 104.000000
E 111 574 99.000000
E 112 365 103.000000
E 112 410 100.000000
E 112 423 92.000000
E 112 453 101.000000
E 113 244 89.000000
E 113 331 104.000000
E 113 436 102.000000
E 113 527 106.000000
E 113 538 101.000000
E 113 552 106.000000
E 114 189 96.000000
E 114 291 100.000000
E 115 200 97.000000
E 115 203 96.000000
E 115 375 96.000000
E 115 380 103.000000
E 115 383 96.000000
E 115 390 96.000000
E 115 401 104.000000
E 116 131 106.000000
E 116 142 103.000000
E 116 288 97.000000
E 116 405 109.000000
E 116 415 100.000000
E 116 505 106.000000
E 117 164 92.000000
E 117 463 108.000000
E 119 296 99.000000
E 120 411 98.000000
E 120 628 99.000000
E 121 296 102.000000
E 121 371 92.000000
E 121 376 96.000000
E 121 476 107.000000
E 121 638 96.000000
E 122 358 100.000000
E 123 242 108.000000
E 123 268 103.000000
E 123 421 103.000000
E 123 542 104.000000
E 124 246 94.000000
E 124 525 105.000000
E 125 273 93.000000
E 125 297 89.000000
E 125 315 100.000000
E 125 389 91.000000
E 125 482 101.000000
E 125 496 107.000000
E 126 178 97.000000
E 126 230 106.000000
E 126 405 96.000000
E 126 432 93.000000
E 126 516 94.000000
E 126 535 90.000000
E 127 258 97.000000
E 127 294 101.000000
E 127 427 105.000000
E 128 228 104.000000
E 128 462 97.000000
E 128 490 98.000000
E 128 634 103.000000
E 129 504 93.000000
E 129 544 104.000000
E 130 134 99.000000
E 130 214 103.000000
E 130 262 97.000000
E 130 372 98.000000
E 132 195 102.000000
E 132 356 106.000000
E 132 556 96.000000
E 133 198 106.000000
E 133 221 104.000000
E 133 285 97.000000
E 133 475 100.000000
E 134 499 103.000000
E 134 596 97.000000
E 134 623 94.000000
E 135 183 104.000000
E 135 208 106.000000
E 135 468 93.000000
E 135 602 103.000000
E 136 204 94.000000
E 136 212 104.000000
E 137 313 112.000000
E 137 316 94.000000
E 137 317 102.000000
E 137 336 98.000000
E 137 621 106.000000
E 138 458 96.000000
E 138 476 103.000000
E 139 527 104.000000
E 140 505 95.000000
E 140 551 95.000000
E 140 590 106.000000
E 140 610 91.000000
E 141 370 90.000000
E 141 436 104.000000
E 141 536 93.000000
E 142 480 95.000000
E 142 614 95.000000
E 143 302 103.000000
E 143 566 94.000000
E 144 624 101.000000
E 145 156 87.000000
E 146 284 97.000000
E 146 292 105.000000
E 146 336 92.000000
E 146 533 97.000000
E 146 568 108.000000
E 147 270 98.000000
E 147 334 102.000000
E 147 395 96.000000
E 148 169 94.000000
E 148 183 97.000000
E 148 300 94.000000
E 148 623 91.000000
E 149 304 98.000000
E 149 424 107.000000
E 149 527 106.000000
E 150 208 101.000000
E 150 242 101.000000
E 150 558 99.000000
E 151 226 101.000000
E 151 360 96.000000
E 151 621 108.000000
E 152 244 99.000000
E 152 357 106.000000
E 152 446 99.000000
E 152 609 103.000000
E 153 504 102.000000
E 153 568 99.000000
E 154 337 93.000000
E 154 492 97.000000
E 155 443 97.000000
E 155 457 102.000000
E 155 480 105.000000
E 156 164 109.000000
E 156 432 92.000000
E 156 511 99.000000
E 156 531 104.000000
E 157 249 99.000000
E 157 336 101.000000
E 158 295 103.000000
E 158 403 107.000000
E 158 486 99.000000
E 158 492 96.000000
E 158 541 93.000000
E 159 187 100.000000
E 159 240 97.000000
E 159 523 99.000000
E 159 528 101.000000
E 159 635 91.000000
E 160 214 102.000000
E 160 272 102.000000
E 160 451 104.000000
E 161 233 96.000000
E 161 293 113.000000
E 162 389 100.000000
E 162 415 96.000000
E 163 172 97.000000
E 163 320 100.000000
E 163 421 106.000000
E 163 458 98.000000
E 164 211 103.000000
E 164 342 107.000000
E 164 473 104.000000
E 165 201 96.000000
E 165 532 92.000000
E 166 399 95.000000
E 166 419 98.000000
E 166 467 105.000000
E 166 581 103.000000
E 167 188 93.000000
E 167 246 99.000000
E 167 274 103.000000
E 167 634 96.000000
E 168 221 106.000000
E 168 612 103.000000
E 169 184 100.000000
E 169 291 106.000000
E 169 481 88.000000
E 169 570 100.000000
E 170 437 107.000000
E 170 440 101.000000
E 170 524 102.000000
E 170 621 105.000000
E 171 466 101.000000
E 171 482 97.000000
E 171 537 104.000000
E 172 474 99.000000
E 173 371 96.000000
E 173 461 101.000000
E 173 508 102.000000
E 174 362 97.000000
E 175 247 96.000000
E 175 447 96.000000
E 175 522 101.000000
E 175 592 98.000000
E 175 633 96.000000
E 176 181 104.000000
E 176 530 103.000000
E 177 352 94.000000
E 177 469 97.000000
E 177 477 99.000000
E 178 217 99.000000
E 179 270 96.000000
E 179 382 98.000000
E 180 273 99.000000
E 181 456 99.000000
E 182 474 93.000000
E 183 332 99.000000
E 183 368 97.000000
E 185 197 96.000000
E 185 209 100.000000
E 185 296 99.000000
E 185 466 107.000000
E 186 213 96.000000
E 186 530 99.000000
E 187 374 111.000000
E 187 521 107.000000
E 188 203 97.000000
E 188 279 102.000000
E 188 281 94.000000
E 189 323 90.000000
E 189 366 99.000000
E 189 479 90.000000
E 191 478 103.000000
E 191 541 93.000000
E 191 561 107.000000
E 191 581 103.000000
E 191 596 104.000000
E 192 331 101.000000
E 192 549 108.000000
E 193 255 99.000000
E 194 226 93.000000
E 195 447 97.000000
E 195 451 98.000000
E 197 584 104.000000
E 198 322 95.000000
E 198 494 99.000000
E 198 632 101.000000
E 199 210 105.000000
E 199 254 106.000000
E 199 327 104.000000
E 200 273 98.000000
E 201 225 93.000000
E 202 271 100.000000
E 202 470 103.000000
E 203 463 99.000000
E 203 469 104.000000
E 203 491 91.000000
E 204 292 92.000000
E 205 562 96.000000
E 206 295 100.000000
E 206 376 97.000000
E 206 481 101.000000
E 207 398 99.000000
E 207 578 95.000000
E 207 635 102.000000
E 208 229 99.000000
E 208 368 104.000000
E 208 508 105.000000
E 209 287 100.000000
E 209 507 101.000000
E 209 588 95.000000
E 210 232 93.000000
E 210 279 93.000000
E 210 314 87.000000
E 210 349 98.000000
E 210 511 99.000000
E 212 591 100.000000
E 212 621 97.000000
E 212 623 95.000000
E 213 263 106.000000
E 213 303 96.000000
E 213 313 104.000000
E 213 399 93.000000
E 213 408 101.000000
E 213 565 103.000000
E 214 256 103.000000
E 215 402 103.000000
E 215 542 93.000000
E 216 433 98.000000
E 217 493 99.000000
E 217 611 96.000000
E 218 480 103.000000
E 218 627 100.000000
E 219 387 90.000000
E 219 399 104.000000
E 219 429 89.000000
E 219 479 98.000000
E 219 497 104.000000
E 219 600 96.000000
E 220 367 103.000000
E 220 405 110.000000
E 221 231 92.000000
E 221 303 96.000000
E 221 378 93.000000
E 221 388 98.000000
E 221 407 101.000000
E 221 447 98.000000
E 221 480 104.000000
E 221 566 93.000000
E 221 580 104.000000
E 221 634 96.000000
E 222 463 102.000000
E 222 469 106.000000
E 222 506 105.000000
E 222 562 103.000000
E 222 613 105.000000
E 223 283 96.000000
E 223 366 102.000000
E 223 446 101.000000
E 224 263 94.000000
E 224 384 97.000000
E 224 433 110.000000
E 224 634 95.000000
E 225 264 95.000000
E 225 360 96.000000
E 225 383 103.000000
E 226 287 95.000000
E 226 513 98.000000
E 226 534 102.000000
E 226 623 98.000000
E 227 466 98.000000
E 227 600 103.000000
E 228 244 100.000000
E 228 247 94.000000
E 228 312 99.000000
E 228 363 98.000000
E 228 406 97.000000
E 228 426 102.000000
E 228 589 94.000000
E 229 347 97.000000
E 229 597 105.000000
E 231 425 89.000000
E 232 329 98.000000
E 232 476 101.000000
E 233 343 94.000000
E 233 441 96.000000
E 234 251 96.000000
E 234 394 89.000000
E 235 385 95.000000
E 236 480 98.000000
E 236 537 98.000000
E 236 626 96.000000
E 237 246 94.000000
E 237 591 105.000000
E 237 622 102.000000
E 238 553 99.000000
E 239 287 97.000000
E 239 413 108.000000
E 239 571 96.000000
E 240 407 100.000000
E 241 268 106.000000
E 241 270 100.000000
E 241 328 93.000000
E 241 595 97.000000
E 241 596 101.000000
E 242 329 96.000000
E 242 424 101.000000
E 242 559 93.000000
E 243 314 103.000000
E 243 372 97.000000
E 243 373 93.000000
E 243 403 91.000000
E 244 339 99.000000
E 244 543 95.000000
E 244 572 94.000000
E 245 546 105.000000
E 246 440 109.000000
E 246 604 110.000000
E 247 361 103.000000
E 247 491 100.000000
E 248 372 96.000000
E 248 390 105.000000
E 248 500 103.000000
E 248 516 106.000000
E 249 438 97.000000
E 249 474 97.000000
E 250 438 104.000000
E 250 498 101.000000
E 250 546 93.000000
E 250 579 95.000000
E 250 611 99.000000
E 251 456 99.000000
E 251 572 109.000000
E 252 339 102.000000
E 252 345 100.000000
E 252 476 96.000000
E 252 563 103.000000
E 252 585 94.000000
E 252 624 101.000000
E 253 598 99.000000
E 254 595 100.000000
E 254 621 107.000000
E 255 265 105.000000
E 255 270 102.000000
E 255 594 95.000000
E 257 322 90.000000
E 257 547 92.000000
E 257 561 99.000000
E 257 628 102.000000
E 258 438 106.000000
E 259 279 104.000000
E 260 332 92.000000
E 260 428 104.000000
E 261 408 107.000000
E 261 612 103.000000
E 262 564 87.000000
E 263 451 107.000000
E 263 454 103.000000
E 263 486 103.000000
E 265 339 108.000000
E 265 356 103.000000
E 265 433 99.000000
E 265 542 100.000000
E 265 546 96.000000
E 267 326 106.000000
E 267 460 107.000000
E 267 469 107.000000
E 267 545 109.000000
E 267 559 99.000000
E 268 283 104.000000
E 268 383 99.000000
E 269 331 107.000000
E 269 338 106.000000
E 269 355 97.000000
E 269 359 100.000000
E 269 418 91.000000
E 269 605 100.000000
E 270 405 99.000000
E 270 545 101.000000
E 270 613 100.000000
E 271 313 97.000000
E 271 389 103.000000
E 272 475 103.000000
E 272 487 104.000000
E 272 633 108.000000
E 273 298 99.000000
E 273 303 103.000000
E 273 472 90.000000
E 274 437 103.000000
E 274 590 103.000000
E 275 336 98.000000
E 275 533 105.000000
E 275 546 104.000000
E 275 620 97.000000
E 276 509 107.000000
E 277 392 99.000000
E 277 541 107.000000
E 277 638 98.000000
E 277 640 98.000000
E 278 509 92.000000
E 279 326 96.000000
E 279 359 100.000000
E 279 532 104.000000
E 280 334 110.000000
E 280 395 102.000000
E 280 407 99.000000
E 280 544 101.000000
E 280 599 102.000000
E 281 463 96.000000
E 281 570 100.000000
E 282 369 103.000000
E 282 499 109.000000
E 283 354 94.000000
E 283 616 104.000000
E 285 526 105.000000
E 285 551 99.000000
E 286 320 98.000000
E 286 451 100.000000
E 287 527 103.000000
E 287 622 100.000000
E 288 557 106.000000
E 289 335 100.000000
E 289 409 98.000000
E 289 617 95.000000
E 290 582 109.000000
E 291 356 101.000000
E 292 497 100.000000
E 293 378 102.000000
E 293 612 96.000000
E 294 606 95.000000
E 295 549 95.000000
E 295 580 105.000000
E 297 356 97.000000
E 297 487 100.000000
E 297 488 100.000000
E 297 490 109.000000
E 298 300 97.000000
E 298 321 100.000000
E 298 371 93.000000
E 298 516 92.000000
E 298 619 99.000000
E 298 636 110.000000
E 299 505 96.000000
E 301 330 95.000000
E 301 407 103.000000
E 301 559 97.000000
E 301 639 99.000000
E 303 489 105.000000
E 304 473 102.000000
E 304 477 89.000000
E 304 504 97.000000
E 304 572 106.000000
E 305 392 102.000000
E 306 346 99.000000
E 306 458 102.000000
E 308 555 99.000000
E 308 610 104.000000
E 309 444 101.000000
E 310 473 95.000000
E 310 625 105.000000
E 311 514 91.000000
E 311 519 102.000000
E 312 445 99.000000
E 312 537 100.000000
E 312 591 105.000000
E 313 413 90.000000
E 313 567 103.000000
E 314 326 107.000000
E 314 365 92.000000
E 314 420 97.000000
E 314 581 94.000000
E 315 336 100.000000
E 316 570 100.000000
E 317 519 104.000000
E 317 544 102.000000
E 317 571 94.000000
E 318 449 97.000000
E 318 549 100.000000
E 319 339 103.000000
E 319 496 104.000000
E 320 434 92.000000
E 320 631 89.000000
E 321 425 97.000000
E 321 599 96.000000
E 321 624 104.000000
E 322 395 107.000000
E 322 410 102.000000
E 323 568 99.000000
E 323 579 96.000000
E 324 349 100.000000
E 324 549 103.000000
E 324 572 94.000000
E 324 620 97.000000
E 324 636 101.000000
E 325 392 95.000000
E 325 461 95.000000
E 326 405 100.000000
E 326 429 105.000000
E 326 512 89.000000
E 326 561 91.000000
E 326 597 99.000000
E 326 634 101.000000
E 327 499 102.000000
E 328 525 101.000000
E 328 572 103.000000
E 329 512 101.000000
E 329 581 106.000000
E 330 380 96.000000
E 331 631 99.000000
E 332 593 107.000000
E 333 497 102.000000
E 333 518 99.000000
E 333 566 97.000000
E 334 521 97.000000
E 334 550 95.000000
E 335 551 112.000000
E 336 399 92.000000
E 336 533 103.000000
E 336 617 92.000000
E 337 413 97.000000
E 337 452 99.000000
E 337 609 90.000000
E 338 422 107.000000
E 339 440 110.000000
E 340 353 100.000000
E 340 434 102.000000
E 341 445 98.000000
E 341 500 97.000000
E 342 413 100.000000
E 343 364 103.000000
E 343 380 100.000000
E 343 411 96.000000
E 343 541 102.000000
E 343 575 101.000000
E 344 347 99.000000
E 344 350 103.000000
E 344 464 95.000000
E 344 568 100.000000
E 344 625 99.000000
E 345 469 97.000000
E 345 538 99.000000
E 346 400 93.000000
E 346 547 107.000000
E 347 387 100.000000
E 347 444 93.000000
E 347 555 101.000000
E 348 368 93.000000
E 348 634 95.000000
E 349 419 109.000000
E 349 422 88.000000
E 349 521 90.000000
E 349 541 112.000000
E 349 637 109.000000
E 350 497 100.000000
E 350 513 95.000000
E 350 548 108.000000
E 351 357 106.000000
E 351 522 95.000000
E 352 477 97.000000
E 352 540 106.000000
E 353 378 98.000000
E 353 467 92.000000
E 353 518 107.000000
E 353 616 102.000000
E 355 431 105.000000
E 355 528 95.000000
E 355 553 94.000000
E 356 404 97.000000
E 357 481 97.000000
E 358 453 100.000000
E 358 605 99.000000
E 359 372 105.000000
E 359 427 99.000000
E 359 504 107.000000
E 359 555 101.000000
E 359 570 97.000000
E 360 423 92.000000
E 362 397 103.000000
E 363 611 99.000000
E 364 391 103.000000
E 365 373 107.000000
E 365 427 102.000000
E 365 498 99.000000
E 367 398 103.000000
E 367 461 101.000000
E 367 514 100.000000
E 367 620 100.000000
E 368 425 102.000000
E 368 455 107.000000
E 368 522 99.000000
E 368 526 98.000000
E 369 413 97.000000
E 371 486 97.000000
E 371 490 102.000000
E 372 391 101.000000
E 372 411 103.000000
E 372 616 104.000000
E 373 398 97.000000
E 373 577 106.000000
E 374 567 97.000000
E 374 616 95.000000
E 375 481 102.000000
E 375 608 98.000000
E 376 427 103.000000
E 377 457 98.000000
E 378 414 98.000000
E 378 445 99.000000
E 378 553 97.000000
E 379 428 95.000000
E 379 570 97.000000
E 380 496 95.000000
E 380 621 95.000000
E 381 504 110.000000
E 381 625 105.000000
E 382 411 98.000000
E 382 622 102.000000
E 383 587 98.000000
E 383 603 103.000000
E 384 503 93.000000
E 384 629 98.000000
E 385 420 99.000000
E 385 539 100.000000
E 385 617 98.000000
E 386 396 102.000000
E 388 393 101.000000
E 388 444 97.000000
E 391 410 104.000000
E 391 530 97.000000
E 392 503 95.000000
E 393 405 104.000000
E 393 539 106.000000
E 394 429 98.000000
E 394 581 99.000000
E 395 452 97.000000
E 395 573 105.000000
E 396 579 103.000000
E 397 469 101.000000
E 397 559 95.000000
E 398 529 96.000000
E 398 540 94.000000
E 399 409 97.000000
E 399 563 97.000000
E 400 536 92.000000
E 401 410 101.000000
E 402 541 95.000000
E 402 554 96.000000
E 403 413 103.000000
E 403 552 92.000000
E 404 634 97.000000
E 406 510 98.000000
E 406 624 98.000000
E 407 522 101.000000
E 410 469 101.000000
E 410 616 86.000000
E 412 580 101.000000
E 415 459 96.000000
E 415 629 100.000000
E 416 427 107.000000
E 416 474 97.000000
E 417 524 95.000000
E 417 633 90.000000
E 418 513 104.000000
E 418 604 99.000000
E 418 610 94.000000
E 419 528 94.000000
E 420 450 102.000000
E 422 427 101.000000
E 423 441 102.000000
E 424 459 97.000000
E 424 554 94.000000
E 424 597 101.000000
E 424 609 93.000000
E 424 623 99.000000
E 425 500 100.000000
E 426 518 108.000000
E 429 453 95.000000
E 429 476 99.000000
E 429 533 97.000000
E 429 553 101.000000
E 429 571 92.000000
E 429 621 97.000000
E 430 581 103.000000
E 431 594 100.000000
E 433 449 102.000000
E 433 595 95.000000
E 433 633 105.000000
E 435 466 111.000000
E 435 605 97.000000
E 436 599 97.000000
E 437 597 100.000000
E 439 476 102.000000
E 439 532 105.000000
E 442 619 100.000000
E 443 566 106.000000
E 443 617 94.000000
E 444 595 96.000000
E 445 469 105.000000
E 445 592 99.000000
E 446 455 99.000000
E 446 509 100.000000
E 446 546 102.000000
E 446 620 103.000000
E 447 511 94.000000
E 447 567 103.000000
E 447 597 107.000000
E 447 612 101.000000
E 450 555 95.000000
E 451 613 101.000000
E 453 552 104.000000
E 453 616 101.000000
E 454 547 105.000000
E 454 577 101.000000
E 455 608 97.000000
E 456 512 97.000000
E 457 627 102.000000
E 458 607 96.000000
E 458 616 96.000000
E 458 623 99.000000
E 460 525 93.000000
E 462 563 96.000000
E 462 585 102.000000
E 463 570 100.000000
E 465 490 96.000000
E 467 565 105.000000
E 468 515 96.000000
E 468 590 98.000000
E 469 504 97.000000
E 470 501 97.000000
E 470 534 100.000000
E 470 614 101.000000
E 471 474 93.000000
E 471 475 95.000000
E 472 532 105.000000
E 474 602 97.000000
E 476 556 99.000000
E 477 519 107.000000
E 477 634 103.000000
E 484 556 103.000000
E 485 552 106.000000
E 486 544 106.000000
E 488 555 110.000000
E 489 534 99.000000
E 489 640 100.000000
E 490 524 100.000000
E 492 634 92.000000
E 493 495 106.000000
E 494 593 105.000000
E 496 517 103.000000
E 496 540 99.000000
E 496 553 95.000000
E 496 556 96.000000
E 496 591 96.000000
E 496 632 102.000000
E 498 551 105.000000
E 498 593 102.000000
E 498 612 103.000000
E 499 527 92.000000
E 499 541 95.000000
E 499 566 97.000000
E 499 607 104.000000
E 500 501 98.000000
E 502 608 98.000000
E 503 578 96.000000
E 505 579 100.000000
E 508 636 108.000000
E 508 640 102.000000
E 509 522 100.000000
E 511 633 97.000000
E 512 514 103.000000
E 512 529 106.000000
E 513 546 98.000000
E 522 558 97.000000
E 523 582 104.000000
E 524 540 98.000000
E 529 560 104.000000
E 529 606 99.000000
E 530 613 91.000000
E 533 569 105.000000
E 533 602 97.000000
E 539 605 100.000000
E 543 606 105.000000
E 548 608 97.000000
E 552 578 92.000000
E 552 584 104.000000
E 555 586 105.000000
E 556 627 98.000000
E 559 584 93.000000
E 559 598 108.000000
E 560 585 102.000000
E 561 567 105.000000
E 561 598 96.000000
E 561 599 96.000000
E 563 579 93.000000
E 564 587 96.000000
E 565 613 101.000000
E 570 608 92.000000
E 570 637 107.000000
E 578 583 95.000000
E 582 608 102.000000
E 584 601 104.000000
E 584 606 96.000000
E 588 630 90.000000
E 594 624 99.000000
E 598 622 105.000000
E 600 627 100.000000
E 602 610 105.000000
E 607 618 106.000000
E 609 616 104.000000
E 615 629 100.000000
E 618 633 101.000000
E 621 640 100.000000
END

SECTION Terminals
Terminals 9
TP 1 436.000000
TP 2 192.000000
TP 3 344.000000
TP 4 604.000000
TP 5 708.000000
TP 6 512.000000
TP 7 336.000000
TP 8 32.000000
TP 9 444.000000
END

EOF
